experiment/data/hgs-res/Vrp-Set-X-n110/Vrp-Set-X-n110-hgs/0.hgs1.vrp
NAME : 0
COMMENT : CVRP Instance
TYPE : CVRP
DIMENSION : 110
EDGE_WEIGHT_TYPE : EUC_2D
CAPACITY : 66
NODE_COORD_SECTION
1	500.0	500.0
2	740.0	442.0
3	261.0	710.0
4	578.0	522.0
5	482.0	914.0
6	628.0	644.0
7	551.0	651.0
8	828.0	54.0
9	541.0	270.0
10	450.0	1000.0
11	521.0	127.0
12	738.0	809.0
13	323.0	289.0
14	803.0	214.0
15	556.0	488.0
16	758.0	937.0
17	875.0	326.0
18	113.0	509.0
19	491.0	726.0
20	415.0	355.0
21	946.0	632.0
22	136.0	120.0
23	117.0	971.0
24	817.0	246.0
25	491.0	845.0
26	454.0	801.0
27	676.0	995.0
28	145.0	557.0
29	166.0	494.0
30	977.0	318.0
31	363.0	711.0
32	164.0	501.0
33	833.0	501.0
34	444.0	958.0
35	828.0	672.0
36	714.0	57.0
37	51.0	676.0
38	922.0	16.0
39	673.0	571.0
40	211.0	471.0
41	590.0	220.0
42	305.0	311.0
43	953.0	745.0
44	154.0	753.0
45	918.0	227.0
46	819.0	671.0
47	675.0	667.0
48	617.0	176.0
49	706.0	179.0
50	512.0	443.0
51	302.0	453.0
52	753.0	786.0
53	331.0	450.0
54	765.0	990.0
55	249.0	360.0
56	292.0	887.0
57	371.0	804.0
58	786.0	186.0
59	382.0	284.0
60	44.0	552.0
61	107.0	895.0
62	108.0	928.0
63	523.0	264.0
64	397.0	120.0
65	25.0	769.0
66	98.0	623.0
67	946.0	978.0
68	815.0	696.0
69	314.0	361.0
70	447.0	695.0
71	878.0	243.0
72	341.0	648.0
73	363.0	0.0
74	675.0	83.0
75	998.0	520.0
76	98.0	111.0
77	267.0	902.0
78	628.0	746.0
79	940.0	409.0
80	786.0	488.0
81	323.0	674.0
82	986.0	151.0
83	790.0	150.0
84	180.0	944.0
85	533.0	816.0
86	750.0	789.0
87	589.0	125.0
88	640.0	911.0
89	99.0	216.0
90	754.0	659.0
91	828.0	357.0
92	597.0	587.0
93	929.0	655.0
94	159.0	781.0
95	955.0	6.0
96	63.0	435.0
97	130.0	302.0
98	954.0	687.0
99	866.0	879.0
100	131.0	686.0
101	519.0	220.0
102	454.0	928.0
103	415.0	916.0
104	468.0	833.0
105	109.0	859.0
106	806.0	568.0
107	907.0	703.0
108	821.0	135.0
109	622.0	561.0
110	482.0	689.0
DEMAND_SECTION
1	0
2	8
3	10
4	8
5	5
6	10
7	5
8	9
9	10
10	6
11	5
12	10
13	5
14	9
15	10
16	7
17	9
18	7
19	8
20	5
21	8
22	10
23	6
24	8
25	7
26	6
27	7
28	5
29	10
30	10
31	5
32	7
33	5
34	10
35	6
36	7
37	9
38	7
39	7
40	6
41	7
42	10
43	8
44	10
45	6
46	10
47	8
48	6
49	10
50	8
51	10
52	10
53	6
54	5
55	5
56	10
57	5
58	10
59	8
60	8
61	5
62	6
63	7
64	8
65	9
66	10
67	8
68	5
69	6
70	10
71	8
72	5
73	10
74	9
75	7
76	6
77	7
78	7
79	6
80	9
81	6
82	10
83	9
84	10
85	5
86	5
87	7
88	8
89	10
90	10
91	10
92	8
93	9
94	6
95	6
96	5
97	6
98	8
99	5
100	9
101	5
102	5
103	6
104	6
105	5
106	5
107	7
108	7
109	9
110	9
DEPOT_SECTION
1
-1
EOF
