experiment/data/hgs-res/Vrp-Set-X-n110/Vrp-Set-X-n110-hgs/0.hgs1.tour
Route #1: 52 50 39 28 31 17 95 59 27
Route #2: 68 54 96 88 75 21 41 12 58
Route #3: 49 8 62 100 86 10 72 63 19
Route #4: 23 13 57 107 82 48 47 40
Route #5: 70 44 81 94 37 7 35 73
Route #6: 1 90 16 29 78 74 32 79
Route #7: 14 3 108 38 91
Route #8: 105 20 92 97 42 106 34 45 67
Route #9: 5 46 89 51 85 11 77 6
Route #10: 109 18 84 87 26 53 15 66 98
Route #11: 69 25 103 24 4 101 33 9 102 56
Route #12: 30 55 76 83 22 61 60 104 93 80
Route #13: 71 2 43 64 36 65 99
Cost 14978.2
